peakDumbCharging = 22200; 
Machine = anon_enum(16); 
machineSpeed = [3700,3700,3700,3700,3700,3700,3700,3700,3700,3700,3700,3700,3700,3700,3700,3700]; 
machineLoad = [3700,3700,3700,3700,3700,3700,3700,3700,3700,3700,3700,3700,3700,3700,3700,3700]; 
Car = anon_enum(29); 
demandCar = [10920,5880,12320,1720,10280,7280,680,6760,7720,9400,8080,3800,5560,13680,14160,4200,5040,6320,5400,3480,6920,21320,14240,680,8080,54800,31960,35800,32680]; 
arrivalCar = [80,74,70,69,67,67,65,65,64,62,62,61,59,55,55,54,53,47,44,44,43,41,40,40,40,33,31,30,30]; 
departureCar = [84,78,76,71,74,74,67,75,70,68,66,65,69,64,62,57,55,52,51,47,46,48,46,41,47,66,67,63,65]; 
